NAME: tsp40_22
COMMENT: 40-tsp problem (Padberg/Rinaldi)
TYPE: TSP
DIMENSION: 40
EDGE_WEIGHT_TYPE : EUC_2D
NODE_COORD_SECTION
1 8 19
2 3 20
3 5 16
4 14 38
5 30 33
6 24 26
7 29 2
8 23 25
9 38 22
10 3 39
11 11 34
12 14 39
13 14 0
14 12 30
15 10 33
16 27 22
17 0 12
18 5 13
19 36 17
20 6 19
21 26 17
22 37 28
23 5 9
24 2 21
25 19 32
26 16 7
27 26 18
28 35 8
29 22 24
30 2 33
31 6 38
32 27 24
33 30 21
34 5 28
35 9 6
36 22 9
37 7 4
38 1 25
39 38 35
40 11 9
